NAME: CMT5_7
TYPE: CVRP
COMMENT: 1291.29 - Cluster Nr.7
DIMENSION: 16
CAPACITY: 200
EDGE_WEIGHT_TYPE: EUC_2D
NODE_COORD_TYPE: TWOD_COORDS
NODE_COORD_SECTION: 
12 17 33
6 11 28
14 12 38
16 17 34
13 5 30
2 35 35
15 7 43
9 10 43
5 21 36
7 15 30
3 14 37
8 6 38
11 20 40
10 11 31
1 12 42
4 7 38
DEPOT_SECTION: 
2
-1
DEMAND_SECTION: 
12 41
15 27
13 2
5 19
10 7
8 16
14 5
2 0
3 11
9 9
6 6
1 21
11 12
16 3
7 26
4 28
EOF
